data_MFI_SI

_audit_creation_method RASPA-1.0
_audit_creation_date 2022-11-15
_audit_author_name 'Zhao Li'

_citation_author_name        'H. van Koningsveld, H. van Bekkum, and J. C. Jansen'
_citation_title              'On the location and disorder of the tetrapropylammonium (TPA) ion in zeolite ZSM-5 with improved framework accuracy'
_citation_journal_abbrev     'Acta Cryst.'
_citation_journal_volume     B43
_citation_page_first         127
_citation_page_last          132
_citation_year               1987

_cell_length_a    40.0
_cell_length_b    40.0
_cell_length_c    40.0
_cell_angle_alpha 90
_cell_angle_beta  90
_cell_angle_gamma 90
_cell_volume      64000

_symmetry_cell_setting          orthorhombic
_symmetry_space_group_name_Hall 'P 1'
_symmetry_space_group_name_H-M  'P 1'
_symmetry_Int_Tables_number     1

_symmetry_equiv_pos_as_xyz 'x,y,z'

loop_
_atom_site_label
_atom_site_type_symbol
_atom_site_fract_x
_atom_site_fract_y
_atom_site_fract_z
_atom_site_charge
