Mg  H  C  O 
 1.0000000000000000
     6.8893573999999997    0.0000000000000000    0.0000000000000000
    -2.2971884941708183   15.0573150058231722    0.0000000000000000
    -2.2981913480608416   -7.5300531800166368   13.0399668583215096
 Mg  H   C   O  
   6   6  24  18
Cartesian
 -2.4935530776748913  7.9608291340458237  5.2949124467352808
 -0.1962373815199893  8.1326522410124937  3.4975111901136522
  2.0993816737031037  6.4899592215321773  4.2476371092339571
  4.7875331623663140 -0.4335673829815505  7.7450493259991537
  2.4902273395556143 -0.6053825102411903  9.5424568418048761
  0.1945983650666305  1.0373023789589482  8.7923246635004784
  2.2270642369539591  4.3416110073801502  6.9468250979229254
 -2.3662738433487380 11.3727267165406314  5.8058724641067787
 -0.0684377540301669  6.8686626753453588  0.2873325401310684
  0.0669158260178435  3.1856420862723094  6.0931315892244360
  4.6602539268200047 -3.8454563833371602  7.2340942638150603
  2.3624277592297163  0.6585981721404472 12.7526305366000514
  4.0576326231896900  5.0247463765657177  6.0692542363098303
 -0.5355031436094385 10.2711127934296442  5.6530285349666904
  1.7622889127625230  7.2877138258372778  1.3173533934854609
 -1.7636737802211739  2.5025033285628107  6.9707083188226138
  2.8294831823892013 -2.7438509670648381  7.3869331073680762
  0.5316926887351898  0.2395528950620953 11.7225997728708471
 -0.5208245599751193  5.5468847617789070  5.0998277617520236
  1.7756733549038441  9.1707394452789792  5.6858591291262162
  4.0728060188281017  7.8668279426800201  2.2550518030816118
  2.8148031496220094  1.9803806768899967  7.9401474421482749
  0.5183067297875787 -1.6434776942147047  7.3541026436082175
 -1.7788259353568350 -0.3395576094765502 10.7849149248402281
  3.2694036386509704  4.0927597270384162  6.7542210058351255
 -1.3238966702093997 11.3305541786247197  6.1175773542943936
  0.9738775954919536  7.1599422803259749  0.1678745773390023
 -0.9754464043642330  3.4344849329544824  6.2857502860751149
  3.6178752151547569 -3.8032974726681616  6.9223928944184996
  1.3201024444979352  0.3673107380259539 12.8720822402080248
 -1.4626710432582384  4.6690173903480883  5.8328567195250471
  0.8336205877967298 10.2447871667509425  6.0794769183284121
  3.1313308332397218  7.6711398138760565  1.1277239786373838
  3.7566396676954672  2.8582402191869365  7.2071122251911586
  1.4603594509730031 -2.7175255662598188  6.9604848544060216
 -0.8373507485482996 -0.1438780628117815 11.9122377940970523
  3.4933128223733942  6.1856170557952659  5.6729885514373848
 -1.0995877535694150  9.3473201155933552  4.8459980260720288
  1.1978655963434084  7.0505459015964531  2.5209362057241131
 -1.1993357942343255  1.3416346803261936  7.3669903036536333
  3.3935678382608359 -1.8200583645290802  8.1939637466624049
  1.0961160281261890  0.4767206687297696 10.5190169606321948
 -0.9503655526430905  6.7050312684807007  4.7169558180387661
  1.3461997248297477  8.2604367433769230  4.8741210617960347
  3.6423895355024385  7.6191588650094646  3.4490799708038344
  3.2443456361143577  0.8222390647227700  8.3230109098830738
  0.9477803139500145 -0.7331749170121156  8.1658405805387311
 -1.3483980823901716 -0.0918930476885595  9.5908744995491606
  0.6734033990219241  5.1816783596475631  4.8602934809394709
  2.9697260153403815  9.1457185466938320  6.1220454989383963
 -1.6222573663728070  8.2567501136388302  2.0590402372540662
  1.6205766397478101  2.3455832408435606  8.1796682917949628
 -0.6757459995425337 -1.6184567956295592  6.9179162737960374
  3.9162389436684499 -0.7294748859007942 10.9809180146893155
