Mg  H  C  O  C  O 
 1.0000000000000000
     6.8740746528308465    0.0002003622231058    0.0006800734262693
    -2.2916551414048478   15.0409537099138237   -0.0001489736996586
    -2.2920259285864115   -7.5219040821821350   13.0250976721775338
 Mg  H   C   O   C   O  
   6   6  24  18   1   2
Cartesian
 -2.4887926036770387  7.9507993060178226  5.2940784108784937
 -0.1973152940185692  8.1291027807159359  3.4923425607949659
  2.0941118776694272  6.4795703346019611  4.2390686020628303
  4.7791864716421042 -0.4315486811856024  7.7315469987624388
  2.4877101655905065 -0.6098537385803722  9.5332843125825679
  0.1962811363252874  1.0396793509177247  8.7865561222304382
  2.2156629306021589  4.3382139796770867  6.9407712572631803
 -2.3670455526387939 11.3610553055909023  5.7974738366524248
 -0.0749572736628646  6.8595206280130263  0.2869685753920584
  0.0747262117164527  3.1810317517787348  6.0848507027377190
  4.6574418196043599 -3.8418061082039698  7.2281519855740859
  2.3653570485308251  0.6597281923396734 12.7386538640601845
  4.0473305801537549  5.0173022394521372  6.0626822244258731
 -0.5353921972010147 10.2611242889972498  5.6489100515519928
  1.7562278603703390  7.2814253004437663  1.3144769017873053
 -1.7569398050535814  2.5019462161670365  6.9629408766880632
  2.8257881114449406 -2.7418746961959641  7.3767165237719157
  0.5341707172438910  0.2378261663545276 11.7111480891747028
 -0.5189506484145330  5.5446878159509501  5.0940517296980241
  1.7723191053532157  9.1589738456873100  5.6764286222662808
  4.0637854346001197  7.8564674875742400  2.2556770073584880
  2.8093435618518230  1.9745612027340176  7.9315751189168582
  0.5180766093130396 -1.6397228134905379  7.3491965104226455
 -1.7733874056562591 -0.3372163628516178 10.7699492664344536
  3.2591655435716520  4.0871661909899331  6.7477854941514321
 -1.3236185033900409 11.3195437817359732  6.1116327406581421
  0.9683455362464684  7.1529303329703238  0.1662674810514410
 -0.9687765418506324  3.4320829240539670  6.2778376214107148
  3.6140144874720965 -3.8002946637987391  6.9139938364105467
  1.3220537624657309  0.3663197926452355 12.8593571931657191
 -1.4587870560814356  4.6646724470957466  5.8255654923010294
  0.8324793441615892 10.2325798942676531  6.0725591509079146
  3.1240135668557549  7.6630633850600196  1.1277281247183681
  3.7491790507681553  2.8545770780777069  7.2000594331921057
  1.4579165576666342 -2.7133300749253322  6.9530664885224374
 -0.8336158294587912 -0.1438118994984521 11.8978970214914437
  3.4838580046560721  6.1796400526260085  5.6666952049166079
 -1.0987550861876481  9.3369440180823506  4.8403176298697401
  1.1926269837868011  7.0427812791542816  2.5189402259827003
 -1.1934656070758489  1.3396077859654278  7.3589290566142749
  3.3891502070379991 -1.8176952474540409  8.1853099433640857
  1.0977701493198737  0.4764703362872753 10.5066832933713190
 -0.9477036668642778  6.7035223121511880  4.7130436645699438
  1.3437544094271918  8.2496249828436774  4.8632465161282488
  3.6350429616094493  7.6067088654424486  3.4496949398210934
  3.2380990575619979  0.8157295407974825  8.3125844559681159
  0.9466421302883261 -0.7303736263442286  8.1623770397583595
 -1.3446442445333191 -0.0874623600091198  9.5759296727925225
  0.6748064953005694  5.1791889321538838  4.8552537336014829
  2.9659309391318223  9.1348422363664099  6.1127305378019514
 -1.6165779197360486  8.2459555908324980  2.0579706816236745
  1.6155864098842478  2.3400599143395171  8.1703724750099589
 -0.6755351813635052 -1.6155917635564778  6.9128952579362446
  3.9069737377350817 -0.7267003024995846 10.9676556387333335
  4.3940000000000001  0.9419999999999999  5.2990000000000004
  5.1399999999999997  1.6220000000000001  4.7270000000000003
  3.6490000000000000  0.2620000000000000  5.8710000000000004
